* Problem:    model
* Class:      MIP
* Rows:       34
* Columns:    9 (9 integer, 9 binary)
* Non-zeros:  69
* Format:     Fixed MPS
*
NAME          model
ROWS
 N  R0000001
 L  R0000002
 L  R0000003
 L  R0000004
 L  R0000005
 L  R0000006
 L  R0000007
 L  R0000008
 L  R0000009
 L  R0000010
 L  R0000011
 L  R0000012
 L  R0000013
 L  R0000014
 L  R0000015
 L  R0000016
 L  R0000017
 L  R0000018
 L  R0000019
 L  R0000020
 L  R0000021
 L  R0000022
 L  R0000023
 L  R0000024
 L  R0000025
 L  R0000026
 L  R0000027
 L  R0000028
 E  R0000029
 E  R0000030
 E  R0000031
 E  R0000032
 E  R0000033
 E  R0000034
COLUMNS
    M0000001  'MARKER'                 'INTORG'
    C0000001  R0000001             1   R0000011             1
    C0000001  R0000012             1   R0000020             1
    C0000001  R0000021             1   R0000029             1
    C0000002  R0000001             1   R0000002             1
    C0000002  R0000003             1   R0000011             1
    C0000002  R0000013             1   R0000022             1
    C0000002  R0000023             1   R0000030             1
    C0000003  R0000001             1   R0000004             1
    C0000003  R0000005             1   R0000006             1
    C0000003  R0000007             1   R0000012             1
    C0000003  R0000013             1   R0000024             1
    C0000003  R0000025             1
    C0000004  R0000001             1   R0000002             1
    C0000004  R0000004             1   R0000014             1
    C0000004  R0000015             1   R0000020             1
    C0000004  R0000026             1
    C0000005  R0000001             1   R0000005             1
    C0000005  R0000008             1   R0000014             1
    C0000005  R0000016             1   R0000022             1
    C0000005  R0000027             1   R0000031             1
    C0000006  R0000001             1   R0000009             1
    C0000006  R0000010             1   R0000015             1
    C0000006  R0000016             1   R0000024             1
    C0000006  R0000028             1   R0000032             1
    C0000007  R0000001             1   R0000003             1
    C0000007  R0000006             1   R0000008             1
    C0000007  R0000009             1   R0000017             1
    C0000007  R0000018             1   R0000021             1
    C0000007  R0000026             1   R0000033             1
    C0000008  R0000001             1   R0000007             1
    C0000008  R0000010             1   R0000017             1
    C0000008  R0000019             1   R0000023             1
    C0000008  R0000027             1
    C0000009  R0000001             1   R0000018             1
    C0000009  R0000019             1   R0000025             1
    C0000009  R0000028             1   R0000034             1
    M0000002  'MARKER'                 'INTEND'
RHS
    RHS1      R0000002             1   R0000003             1
    RHS1      R0000004             1   R0000005             1
    RHS1      R0000006             1   R0000007             1
    RHS1      R0000008             1   R0000009             1
    RHS1      R0000010             1   R0000011             1
    RHS1      R0000012             1   R0000013             1
    RHS1      R0000014             1   R0000015             1
    RHS1      R0000016             1   R0000017             1
    RHS1      R0000018             1   R0000019             1
    RHS1      R0000020             1   R0000021             1
    RHS1      R0000022             1   R0000023             1
    RHS1      R0000024             1   R0000025             1
    RHS1      R0000026             1   R0000027             1
    RHS1      R0000028             1
BOUNDS
 UP BND1      C0000001             1
 UP BND1      C0000002             1
 UP BND1      C0000003             1
 UP BND1      C0000004             1
 UP BND1      C0000005             1
 UP BND1      C0000006             1
 UP BND1      C0000007             1
 UP BND1      C0000008             1
 UP BND1      C0000009             1
ENDATA
